(set-info :Origin "This instance was generated by: BanditFuzz-- an RL fuzzer for SMT solvers" )
(set-info :Author "Joe Scott, Fed Mora, Vijay Ganesh" )
(set-info :Contact "Joe Scott, joseph.scott@uwaterloo.ca")
(set-logic QF_BV)
(declare-const bool_0 Bool)
(declare-const bool_1 Bool)
(declare-const bool_2 Bool)
(declare-const bool_3 Bool)
(declare-const bool_4 Bool)
(declare-const bv_0 (_ BitVec 32))
(declare-const bv_1 (_ BitVec 32))
(declare-const bv_2 (_ BitVec 32))
(declare-const bv_3 (_ BitVec 32))
(declare-const bv_4 (_ BitVec 32))
(assert (bvslt (bvsmod (bvsmod bv_3 #x1edb20ad ) (bvadd #x9dd2049a  bv_1)) (bvmul (bvxnor #xf9e99b88  bv_4) (bvmul #x358ec328  bv_0))))
(assert (bvsge (bvand (bvor bv_3 #xf1fa342e ) (bvnor #x8413523e  #x0f7f829b )) (bvadd (bvurem bv_3 bv_2) (bvsrem #xb60c2008  bv_2))))
(assert (bvult (bvand (bvsdiv #x0dbddabe  #x25f3b1ed ) (bvurem #x911925a4  bv_0)) (bvsrem (bvxnor bv_2 #xb548c503 ) (bvlshr #x27038daa  #x35c10355 ))))
(assert (bvslt (bvudiv (bvsrem bv_1 bv_2) (bvxor #x6bec93f7  bv_3)) (bvashr (bvlshr bv_4 #x3b6fbe47 ) (bvxor #x4755b13d  #x148fbc50 ))))
(assert (bvsge (bvsrem (bvsrem bv_4 bv_1) (bvsdiv #x038aac32  bv_1)) (bvxor (bvadd bv_3 #xd4248551 ) (bvurem #x77901ed2  #x9c4a2a04 ))))
(check-sat)
(exit)
